109924.24
30 29 31 28 11 10 12 27 26 32 33 34 25 24 23 22 21 1 2 20 19 18 17 16 13 14 15 3 4 65 64 63 67 56 57 68 66 69 70 71 0 75 72 73 74 55 54 48 53 52 51 35 50 49 46 47 42 43 45 44 41 40 39 36 37 38 60 59 58 62 61 7 6 5 9 8